objective value:                         -103970.6293
t_x57                                               1 	(obj:-2835)
t_x58                                               1 	(obj:-1620)
t_x66                                               1 	(obj:-1507.28)
t_x90                                               1 	(obj:-1507.28)
t_x129                                              1 	(obj:-2948.93)
t_x153                                              1 	(obj:-2948.93)
t_x251                                              1 	(obj:-1058.77)
t_x252                                              1 	(obj:-823.486)
t_x289                                              1 	(obj:-1652.19)
t_x290                                              1 	(obj:-890.283)
t_x367                                              1 	(obj:-188.865)
t_x368                                              1 	(obj:-254.557)
t_x395                                              1 	(obj:-865.336)
t_x403                                              1 	(obj:-865.336)
t_x404                                              1 	(obj:-673.039)
t_x411                                              1 	(obj:-865.336)
t_x412                                              1 	(obj:-673.039)
t_x441                                              1 	(obj:-1514.34)
t_x442                                              1 	(obj:-865.336)
t_x443                                              1 	(obj:-865.336)
t_x444                                              1 	(obj:-673.039)
t_x460                                              1 	(obj:-655.82)
t_x522                                              1 	(obj:-1265.18)
t_x538                                              1 	(obj:-1265.18)
t_x577                                              1 	(obj:-2735.43)
t_x578                                              1 	(obj:-1563.1)
t_x585                                              1 	(obj:-2735.43)
t_x593                                              1 	(obj:-2735.43)
t_x594                                              1 	(obj:-1563.1)
t_x601                                              1 	(obj:-2735.43)
t_x609                                              1 	(obj:-2570.43)
t_x633                                              1 	(obj:-2735.43)
t_x634                                              1 	(obj:-1563.1)
t_x641                                              1 	(obj:-2832.45)
t_x649                                              1 	(obj:-2832.45)
t_x650                                              1 	(obj:-1618.54)
t_x657                                              1 	(obj:-2832.45)
t_x658                                              1 	(obj:-1618.54)
t_x665                                              1 	(obj:-2832.45)
t_x666                                              1 	(obj:-1618.54)
t_x705                                              1 	(obj:-3721.63)
t_x713                                              1 	(obj:-3721.63)
t_x721                                              1 	(obj:-3721.63)
t_x722                                              1 	(obj:-2126.65)
t_x729                                              1 	(obj:-3721.63)
t_x730                                              1 	(obj:-2126.65)
t_x761                                              1 	(obj:-3721.63)
t_x762                                              1 	(obj:-2126.65)
t_x770                                              1 	(obj:-1185.4)
t_x778                                              1 	(obj:-1185.4)
t_x889                                              1 	(obj:-1315.53)
t_x954                                              1 	(obj:-699.197)
t_x965                                              1 	(obj:-644.857)
t_x966                                              1 	(obj:-598.796)
t_x1046                                             1 	(obj:-354.317)
t_x1127                                             1 	(obj:-47.4358)
t_x1192                                             1 	(obj:-103.285)
t_x1246                                             1 	(obj:-187.996)
t_x1309                                             1 	(obj:-337.373)
t_x1358                                             1 	(obj:-322.286)
t_x1421                                             1 	(obj:-403.059)
t_x1473                                             1 	(obj:-2151.52)
t_x1474                                             1 	(obj:-1229.44)
t_x1481                                             1 	(obj:-2151.52)
t_x1489                                             1 	(obj:-2151.52)
t_x1490                                             1 	(obj:-1229.44)
t_x1497                                             1 	(obj:-2151.52)
t_x1498                                             1 	(obj:-1229.44)
t_x1505                                             1 	(obj:-2021.74)
t_x1546                                             1 	(obj:-1207.54)
t_x1570                                             1 	(obj:-1070.01)
t_x1634                                             1 	(obj:-855.656)
t_x1658                                             1 	(obj:-965.63)
t_x1697                                             1 	(obj:-1598.6)
t_x1721                                             1 	(obj:-1701.21)
t_x1792                                             1 	(obj:-548.565)
t_x1855                                             1 	(obj:-225.503)
t_x1875                                             1 	(obj:-738.179)
t_x1940                                             1 	(obj:-461.583)
t_x1995                                             1 	(obj:-480.668)
t_x1996                                             1 	(obj:-373.853)
t_x2054                                             1 	(obj:-380.076)
t_x2117                                             1 	(obj:-433.193)
t_x2224                                             1 	(obj:-106.349)
t_x2287                                             1 	(obj:-74.0755)
t_x2359                                             1 	(obj:-57.7598)
t_x2424                                             1 	(obj:-39.2394)
t_x2493                                             1 	(obj:-403.467)
t_x2558                                             1 	(obj:-369.221)
t_x2596                                             1 	(obj:-304.18)
t_x2659                                             1 	(obj:-710.425)
t_x2692                                             1 	(obj:-685.861)
t_x2700                                             1 	(obj:-685.861)
t_x2755                                             1 	(obj:-970.139)
t_x2763                                             1 	(obj:-970.139)
t_x2771                                             1 	(obj:-970.139)
t_x2772                                             1 	(obj:-754.553)
t_x2779                                             1 	(obj:-970.139)
t_x2780                                             1 	(obj:-754.553)
t_x2817                                             1 	(obj:-1659.96)
t_x2818                                             1 	(obj:-948.549)
t_x2819                                             1 	(obj:-948.549)
t_x2820                                             1 	(obj:-737.76)
t_x2827                                             1 	(obj:-948.549)
t_x2828                                             1 	(obj:-737.76)
t_x2829                                             1 	(obj:-737.76)
t_x2830                                             1 	(obj:-685.063)
t_x2835                                             1 	(obj:-948.549)
t_x2836                                             1 	(obj:-737.76)
t_x2837                                             1 	(obj:-737.76)
t_x2838                                             1 	(obj:-685.063)
t_x2841                                             1 	(obj:-1659.96)
t_x2842                                             1 	(obj:-948.549)
t_x2845                                             1 	(obj:-737.76)
t_x2846                                             1 	(obj:-685.063)
t_x2849                                             1 	(obj:-1559.84)
t_x2850                                             1 	(obj:-840.52)
t_x2851                                             1 	(obj:-840.52)
t_x2873                                             1 	(obj:-1659.96)
t_x2874                                             1 	(obj:-948.549)
t_x2916                                             1 	(obj:-259.855)
t_x2950                                             1 	(obj:-334.709)
t_x3013                                             1 	(obj:-531.254)
t_x3119                                             1 	(obj:-25.5972)
t_x3120                                             1 	(obj:-34.5006)
t_x3170                                             1 	(obj:-218.48)
t_x3221                                             1 	(obj:-556.911)
t_x3266                                             1 	(obj:-615.793)
t_x3330                                             1 	(obj:200)
t_x3332                                             1 	(obj:200)
t_x3333                                             1 	(obj:200)
t_x3334                                             1 	(obj:200)
t_x3337                                             1 	(obj:200)
t_x3339                                             1 	(obj:200)
t_x3343                                             1 	(obj:200)
t_x3344                                             1 	(obj:200)
t_x3348                                             1 	(obj:200)
t_x3350                                             1 	(obj:200)
t_x3354                                             1 	(obj:200)
t_x3355                                             1 	(obj:200)
t_x3359                                             1 	(obj:200)
t_x3361                                             1 	(obj:200)
t_x3362                                             1 	(obj:200)
t_x3366                                             1 	(obj:200)
t_x3367                                             1 	(obj:200)
t_x3368                                             1 	(obj:200)
t_x3370                                             1 	(obj:200)
t_x3372                                             1 	(obj:200)
t_x3373                                             1 	(obj:200)
t_x3376                                             1 	(obj:200)
t_x3378                                             1 	(obj:200)
t_x3379                                             1 	(obj:200)
t_x3383                                             1 	(obj:200)
t_x3406                                             1 	(obj:200)
t_x3407                                             1 	(obj:200)
t_x3408                                             1 	(obj:200)
t_x3409                                             1 	(obj:200)
t_x3411                                             1 	(obj:200)
t_x3412                                             1 	(obj:200)
t_x3414                                             1 	(obj:200)
t_x3417                                             1 	(obj:200)
t_x3426                                             1 	(obj:200)
t_x3428                                             1 	(obj:200)
t_x3430                                             1 	(obj:200)
t_x3434                                             1 	(obj:200)
t_x3437                                             1 	(obj:200)
t_x3439                                             1 	(obj:200)
t_x3445                                             1 	(obj:200)
t_x3446                                             1 	(obj:200)
t_x3448                                             1 	(obj:200)
t_x3452                                             1 	(obj:200)
t_x3459                                             1 	(obj:200)
t_x3462                                             1 	(obj:200)
t_x3470                                             1 	(obj:200)
t_x3498                                             1 	(obj:200)
t_x3501                                             1 	(obj:200)
t_x3507                                             1 	(obj:200)
t_x3511                                             1 	(obj:200)
t_x3512                                             1 	(obj:200)
t_x3517                                             1 	(obj:200)
t_x3523                                             1 	(obj:200)
t_x3528                                             1 	(obj:200)
t_x3529                                             1 	(obj:200)
t_x3539                                             1 	(obj:200)
t_x3545                                             1 	(obj:200)
t_x3591                                             1 	(obj:200)
t_x3644                                             1 	(obj:200)
t_x3651                                             1 	(obj:200)
t_x3653                                             1 	(obj:200)
t_x3658                                             1 	(obj:200)
t_x3669                                             1 	(obj:200)
t_x3680                                             1 	(obj:200)
t_x3687                                             1 	(obj:240)
t_x3688                                             1 	(obj:240)
t_x3689                                             1 	(obj:240)
t_x3690                                             1 	(obj:240)
t_x3696                                             1 	(obj:240)
t_x3699                                             1 	(obj:240)
t_x3721                                             1 	(obj:240)
t_x3722                                             1 	(obj:240)
t_x3844                                             1 	(obj:240)
t_x3853                                             1 	(obj:240)
t_x3863                                             1 	(obj:240)
t_x4217                                             1 	(obj:240)
t_x4218                                             1 	(obj:240)
t_x4233                                             1 	(obj:240)
t_x4234                                             1 	(obj:240)
t_x4719                                             1 	(obj:280)
t_x4720                                             1 	(obj:280)
t_x4726                                             1 	(obj:280)
t_x4727                                             1 	(obj:280)
t_x4747                                             1 	(obj:280)
t_x4748                                             1 	(obj:280)
t_x5679                                             1 	(obj:240)
t_x5680                                             1 	(obj:240)
t_x5681                                             1 	(obj:240)
t_x5682                                             1 	(obj:240)
t_x5688                                             1 	(obj:240)
t_x5691                                             1 	(obj:240)
t_x5769                                             1 	(obj:240)
t_x6133                                             1 	(obj:240)
t_x6134                                             1 	(obj:240)
t_x6144                                             1 	(obj:240)
t_x6145                                             1 	(obj:240)
t_x6149                                             1 	(obj:240)
t_x6150                                             1 	(obj:240)
t_x6156                                             1 	(obj:240)
t_x6157                                             1 	(obj:240)
t_x6568                                             1 	(obj:280)
t_x6569                                             1 	(obj:280)
t_x6576                                             1 	(obj:280)
t_x6577                                             1 	(obj:280)
t_x7361                                             1 	(obj:240)
t_x7381                                             1 	(obj:240)
t_x7382                                             1 	(obj:240)
t_x7391                                             1 	(obj:240)
t_x7392                                             1 	(obj:240)
t_x7393                                             1 	(obj:240)
t_x7394                                             1 	(obj:240)
t_x7400                                             1 	(obj:240)
t_x7615                                             1 	(obj:240)
t_x7624                                             1 	(obj:240)
t_x7625                                             1 	(obj:240)
t_x7674                                             1 	(obj:240)
t_x7726                                             1 	(obj:240)
t_x7727                                             1 	(obj:240)
t_x7913                                             1 	(obj:240)
t_x8001                                             1 	(obj:280)
t_x8002                                             1 	(obj:280)
t_x8051                                             1 	(obj:280)
t_x8052                                             1 	(obj:280)
t_x8521                                             1 	(obj:240)
t_x8541                                             1 	(obj:240)
t_x8601                                             1 	(obj:240)
t_x8602                                             1 	(obj:240)
t_x8605                                             1 	(obj:240)
t_x8606                                             1 	(obj:240)
t_x8686                                             1 	(obj:240)
t_x8695                                             1 	(obj:240)
t_x8696                                             1 	(obj:240)
t_x8753                                             1 	(obj:240)
t_x8757                                             1 	(obj:240)
t_x8920                                             1 	(obj:240)
t_x8967                                             1 	(obj:240)
t_x8968                                             1 	(obj:240)
t_x9341                                             1 	(obj:360)
t_x9342                                             1 	(obj:360)
t_x9876                                             1 	(obj:360)
t_x9896                                             1 	(obj:360)
t_x9900                                             1 	(obj:360)
t_x9901                                             1 	(obj:360)
t_x9904                                             1 	(obj:360)
t_x9905                                             1 	(obj:360)
t_x10234                                            1 	(obj:320)
t_x10252                                            1 	(obj:320)
t_x10253                                            1 	(obj:240)
t_x10254                                            1 	(obj:240)
t_x10255                                            1 	(obj:240)
t_x10256                                            1 	(obj:240)
t_x10257                                            1 	(obj:240)
t_x10258                                            1 	(obj:240)
t_x10259                                            1 	(obj:240)
t_x10260                                            1 	(obj:240)
t_x10263                                            1 	(obj:240)
t_x10264                                            1 	(obj:240)
t_x10265                                            1 	(obj:240)
t_x10266                                            1 	(obj:240)
t_x10269                                            1 	(obj:240)
t_x10282                                            1 	(obj:240)
t_x10283                                            1 	(obj:240)
t_x10288                                            1 	(obj:240)
t_x10289                                            1 	(obj:240)
t_x10312                                            1 	(obj:280)
t_x10313                                            1 	(obj:280)
t_x10335                                            1 	(obj:320)
t_x10336                                            1 	(obj:320)
t_x10491                                            1 	(obj:360)
t_x10492                                            1 	(obj:360)
t_x10495                                            1 	(obj:360)
t_x10496                                            1 	(obj:360)
t_x10497                                            1 	(obj:360)
t_x10498                                            1 	(obj:360)
t_x10499                                            1 	(obj:360)
t_x10504                                            1 	(obj:360)
t_x10507                                            1 	(obj:360)
t_x10508                                            1 	(obj:360)
t_x10509                                            1 	(obj:360)
t_x10524                                            1 	(obj:360)
t_x10525                                            1 	(obj:360)
t_x10531                                            1 	(obj:360)
t_x10532                                            1 	(obj:360)
t_x10538                                            1 	(obj:360)
t_x10539                                            1 	(obj:360)
t_x10540                                            1 	(obj:360)
t_x10541                                            1 	(obj:360)
t_x10575                                            1 	(obj:360)
t_x10792                                            1 	(obj:360)
t_x10961                                            1 	(obj:240)
t_x10969                                            1 	(obj:240)
t_x10970                                            1 	(obj:240)
t_x10976                                            1 	(obj:240)
t_x10979                                            1 	(obj:240)
t_x11039                                            1 	(obj:240)
t_x11040                                            1 	(obj:240)
t_x11306                                            1 	(obj:240)
t_x11327                                            1 	(obj:240)
t_x11337                                            1 	(obj:240)
t_x11338                                            1 	(obj:240)
t_x11360                                            1 	(obj:240)
t_x11361                                            1 	(obj:240)
t_x11375                                            1 	(obj:240)
t_x11376                                            1 	(obj:240)
t_x11695                                            1 	(obj:280)
t_x11696                                            1 	(obj:280)
t_x11711                                            1 	(obj:280)
t_x11712                                            1 	(obj:280)
t_x12343                                            1 	(obj:0)
t_x12387                                            1 	(obj:0)
t_x12411                                            1 	(obj:0)
t_x12438                                            1 	(obj:0)
t_x12540                                            1 	(obj:0)
t_x12607                                            1 	(obj:0)
t_x12680                                            1 	(obj:0)
t_x12702                                            1 	(obj:0)
t_x12832                                            1 	(obj:0)
t_x12898                                            1 	(obj:0)
t_x12971                                            1 	(obj:0)
t_x12994                                            1 	(obj:0)
t_x13125                                            1 	(obj:0)
t_x13191                                            1 	(obj:0)
t_x13212                                            1 	(obj:0)
t_x13289                                            1 	(obj:0)
t_x13317                                            1 	(obj:0)
t_x13382                                            1 	(obj:0)
t_x13420                                            1 	(obj:0)
t_x13486                                            1 	(obj:0)
t_x13507                                            1 	(obj:0)
t_x13559                                            1 	(obj:0)
t_x13610                                            1 	(obj:0)
t_x13659                                            1 	(obj:0)
t_x13780                                            1 	(obj:0)
t_x14378                                            1 	(obj:0)
t_x14384                                            1 	(obj:0)
t_x14406                                            1 	(obj:0)
t_x14436                                            1 	(obj:0)
t_x14479                                            1 	(obj:0)
t_x14534                                            1 	(obj:0)
t_x14583                                            1 	(obj:0)
t_x14651                                            1 	(obj:0)
t_x14894                                            1 	(obj:0)
t_x14943                                            1 	(obj:0)
t_x14969                                            1 	(obj:0)
t_x15085                                            1 	(obj:0)
t_x15186                                            1 	(obj:0)
t_x15235                                            1 	(obj:0)
t_x15383                                            1 	(obj:0)
t_x15433                                            1 	(obj:0)
t_x15480                                            1 	(obj:0)
t_x15554                                            1 	(obj:0)
t_x15775                                            1 	(obj:0)
t_x15837                                            1 	(obj:0)
t_x16055                                            1 	(obj:0)
t_x16779                                            1 	(obj:0)
t_x16898                                            1 	(obj:0)
t_x16997                                            1 	(obj:0)
t_x17106                                            1 	(obj:0)
t_x17157                                            1 	(obj:0)
t_x17271                                            1 	(obj:0)
t_x17451                                            1 	(obj:0)
t_x17557                                            1 	(obj:0)
t_x17584                                            1 	(obj:0)
t_x17858                                            1 	(obj:0)
t_x18026                                            1 	(obj:0)
t_x19257                                            1 	(obj:0)
t_x20648                                            1 	(obj:0)
t_x20795                                            1 	(obj:0)
t_x20856                                            1 	(obj:0)
t_x21016                                            1 	(obj:0)
t_x21299                                            1 	(obj:0)
t_x21590                                            1 	(obj:0)
